25
2 21 57 
2 38 45 
2 31 8 
3 42 40 60 
2 49 29 
2 4 26 
2 13 53 
2 36 54 
2 3 23 
3 55 22 30 
2 14 17 
3 51 19 32 
2 34 46 
2 59 11 
3 50 47 35 
3 28 6 27 
3 58 43 20 
3 10 48 33 
2 44 56 
3 39 25 52 
3 24 41 15 
2 5 18 
3 1 7 2 
1 37 
3 9 12 16 
